\ENCODING=ISO-8859-1
\Problem name: TSP

Minimize
 obj1: 0 x1 + 5.34842372165467 x2 + 16.5439168677156 x3 + 22.1274688866037 x4
       + 19.9956037167859 x5 + 9.8401836348412 x6 + 22.3710358972164 x7
       + 11.4345773598554 x8 + 18.4718223755934 x9 + 4.22161097964914 x10
       + 5.34842372165467 x11 + 0 x12 + 13.243656880457 x13
       + 16.8242041933289 x14 + 15.0101820146057 x15 + 5.53289277488609 x16
       + 17.0347084039754 x17 + 7.63004621699244 x18 + 13.2143916206731 x19
       + 1.5641271635368 x20 + 16.5439168677156 x21 + 13.243656880457 x22
       + 0 x23 + 13.5626433150618 x24 + 8.85954204957932 x25
       + 16.0840615212337 x26 + 16.5678732343575 x27 + 18.1214295226832 x28
       + 15.74958105463 x29 + 14.6982404710772 x30 + 22.1274688866037 x31
       + 16.8242041933289 x32 + 13.5626433150618 x33 + 0 x34
       + 4.80967965199363 x35 + 14.7663884953416 x36 + 3.82947048962574 x37
       + 15.3884870228439 x38 + 6.54266908208913 x39 + 18.205640827828 x40
       + 19.9956037167859 x41 + 15.0101820146057 x42 + 8.85954204957932 x43
       + 4.80967965199363 x44 + 0 x45 + 14.612117160628 x46
       + 8.28088888419667 x47 + 15.8762315127336 x48 + 9.16211606022104 x49
       + 16.5375154596628 x50 + 9.8401836348412 x51 + 5.53289277488609 x52
       + 16.0840615212337 x53 + 14.7663884953416 x54 + 14.612117160628 x55
       + 0 x56 + 13.7894666180989 x57 + 2.23799653693928 x58
       + 9.48773081765498 x59 + 5.79449340545966 x60 + 22.3710358972164 x61
       + 17.0347084039754 x62 + 16.5678732343575 x63 + 3.82947048962574 x64
       + 8.28088888419667 x65 + 13.7894666180989 x66 + 0 x67
       + 13.857618279975 x68 + 4.3711126285603 x69 + 18.2243756588022 x70
       + 11.4345773598554 x71 + 7.63004621699244 x72 + 18.1214295226832 x73
       + 15.3884870228439 x74 + 15.8762315127336 x75 + 2.23799653693928 x76
       + 13.857618279975 x77 + 0 x78 + 9.48716306078003 x79
       + 7.64902160563399 x80 + 18.4718223755934 x81 + 13.2143916206731 x82
       + 15.74958105463 x83 + 6.54266908208913 x84 + 9.16211606022104 x85
       + 9.48773081765498 x86 + 4.3711126285603 x87 + 9.48716306078003 x88
       + 0 x89 + 14.2647332553967 x90 + 4.22161097964914 x91
       + 1.5641271635368 x92 + 14.6982404710772 x93 + 18.205640827828 x94
       + 16.5375154596628 x95 + 5.79449340545966 x96 + 18.2243756588022 x97
       + 7.64902160563399 x98 + 14.2647332553967 x99 + 0 x100 + 0 y(1)(2)
       + 0 y(1)(3) + 0 y(1)(4) + 0 y(1)(5) + 0 y(1)(6) + 0 y(1)(7) + 0 y(1)(8)
       + 0 y(1)(9) + 0 y(1)(10) + 0 y(2)(1) + 0 y(2)(3) + 0 y(2)(4) + 0 y(2)(5)
       + 0 y(2)(6) + 0 y(2)(7) + 0 y(2)(8) + 0 y(2)(9) + 0 y(2)(10) + 0 y(3)(1)
       + 0 y(3)(2) + 0 y(3)(4) + 0 y(3)(5) + 0 y(3)(6) + 0 y(3)(7) + 0 y(3)(8)
       + 0 y(3)(9) + 0 y(3)(10) + 0 y(4)(1) + 0 y(4)(2) + 0 y(4)(3) + 0 y(4)(5)
       + 0 y(4)(6) + 0 y(4)(7) + 0 y(4)(8) + 0 y(4)(9) + 0 y(4)(10) + 0 y(5)(1)
       + 0 y(5)(2) + 0 y(5)(3) + 0 y(5)(4) + 0 y(5)(6) + 0 y(5)(7) + 0 y(5)(8)
       + 0 y(5)(9) + 0 y(5)(10) + 0 y(6)(1) + 0 y(6)(2) + 0 y(6)(3) + 0 y(6)(4)
       + 0 y(6)(5) + 0 y(6)(7) + 0 y(6)(8) + 0 y(6)(9) + 0 y(6)(10) + 0 y(7)(1)
       + 0 y(7)(2) + 0 y(7)(3) + 0 y(7)(4) + 0 y(7)(5) + 0 y(7)(6) + 0 y(7)(8)
       + 0 y(7)(9) + 0 y(7)(10) + 0 y(8)(1) + 0 y(8)(2) + 0 y(8)(3) + 0 y(8)(4)
       + 0 y(8)(5) + 0 y(8)(6) + 0 y(8)(7) + 0 y(8)(9) + 0 y(8)(10) + 0 y(9)(1)
       + 0 y(9)(2) + 0 y(9)(3) + 0 y(9)(4) + 0 y(9)(5) + 0 y(9)(6) + 0 y(9)(7)
       + 0 y(9)(8) + 0 y(9)(10) + 0 y(10)(1) + 0 y(10)(2) + 0 y(10)(3)
       + 0 y(10)(4) + 0 y(10)(5) + 0 y(10)(6) + 0 y(10)(7) + 0 y(10)(8)
       + 0 y(10)(9)
Subject To
 c1:  x11 + x21 + x31 + x41 + x51 + x61 + x71 + x81 + x91  = 1
 c2:  x2 + x22 + x32 + x42 + x52 + x62 + x72 + x82 + x92  = 1
 c3:  x3 + x13 + x33 + x43 + x53 + x63 + x73 + x83 + x93  = 1
 c4:  x4 + x14 + x24 + x44 + x54 + x64 + x74 + x84 + x94  = 1
 c5:  x5 + x15 + x25 + x35 + x55 + x65 + x75 + x85 + x95  = 1
 c6:  x6 + x16 + x26 + x36 + x46 + x66 + x76 + x86 + x96  = 1
 c7:  x7 + x17 + x27 + x37 + x47 + x57 + x77 + x87 + x97  = 1
 c8:  x8 + x18 + x28 + x38 + x48 + x58 + x68 + x88 + x98  = 1
 c9:  x9 + x19 + x29 + x39 + x49 + x59 + x69 + x79 + x99  = 1
 c10: x10 + x20 + x30 + x40 + x50 + x60 + x70 + x80 + x90  = 1
 c11: x2 + x3 + x4 + x5 + x6 + x7 + x8 + x9 + x10  = 1
 c12: x11 + x13 + x14 + x15 + x16 + x17 + x18 + x19 + x20  = 1
 c13: x21 + x22 + x24 + x25 + x26 + x27 + x28 + x29 + x30  = 1
 c14: x31 + x32 + x33 + x35 + x36 + x37 + x38 + x39 + x40  = 1
 c15: x41 + x42 + x43 + x44 + x46 + x47 + x48 + x49 + x50  = 1
 c16: x51 + x52 + x53 + x54 + x55 + x57 + x58 + x59 + x60  = 1
 c17: x61 + x62 + x63 + x64 + x65 + x66 + x68 + x69 + x70  = 1
 c18: x71 + x72 + x73 + x74 + x75 + x76 + x77 + x79 + x80  = 1
 c19: x81 + x82 + x83 + x84 + x85 + x86 + x87 + x88 + x90  = 1
 c20: x91 + x92 + x93 + x94 + x95 + x96 + x97 + x98 + x99  = 1
Lazy Constraints
 xy(2)(3):  y(2)(3) - 8 x13 <= 0
 xy(2)(4):  y(2)(4) - 8 x14 <= 0
 xy(2)(5):  y(2)(5) - 8 x15 <= 0
 xy(2)(6):  y(2)(6) - 8 x16 <= 0
 xy(2)(7):  y(2)(7) - 8 x17 <= 0
 xy(2)(8):  y(2)(8) - 8 x18 <= 0
 xy(2)(9):  y(2)(9) - 8 x19 <= 0
 xy(2)(10): y(2)(10) - 8 x20 <= 0
 xy(3)(2):  y(3)(2) - 8 x22 <= 0
 xy(3)(4):  y(3)(4) - 8 x24 <= 0
 xy(3)(5):  y(3)(5) - 8 x25 <= 0
 xy(3)(6):  y(3)(6) - 8 x26 <= 0
 xy(3)(7):  y(3)(7) - 8 x27 <= 0
 xy(3)(8):  y(3)(8) - 8 x28 <= 0
 xy(3)(9):  y(3)(9) - 8 x29 <= 0
 xy(3)(10): y(3)(10) - 8 x30 <= 0
 xy(4)(2):  y(4)(2) - 8 x32 <= 0
 xy(4)(3):  y(4)(3) - 8 x33 <= 0
 xy(4)(5):  y(4)(5) - 8 x35 <= 0
 xy(4)(6):  y(4)(6) - 8 x36 <= 0
 xy(4)(7):  y(4)(7) - 8 x37 <= 0
 xy(4)(8):  y(4)(8) - 8 x38 <= 0
 xy(4)(9):  y(4)(9) - 8 x39 <= 0
 xy(4)(10): y(4)(10) - 8 x40 <= 0
 xy(5)(2):  y(5)(2) - 8 x42 <= 0
 xy(5)(3):  y(5)(3) - 8 x43 <= 0
 xy(5)(4):  y(5)(4) - 8 x44 <= 0
 xy(5)(6):  y(5)(6) - 8 x46 <= 0
 xy(5)(7):  y(5)(7) - 8 x47 <= 0
 xy(5)(8):  y(5)(8) - 8 x48 <= 0
 xy(5)(9):  y(5)(9) - 8 x49 <= 0
 xy(5)(10): y(5)(10) - 8 x50 <= 0
 xy(6)(2):  y(6)(2) - 8 x52 <= 0
 xy(6)(3):  y(6)(3) - 8 x53 <= 0
 xy(6)(4):  y(6)(4) - 8 x54 <= 0
 xy(6)(5):  y(6)(5) - 8 x55 <= 0
 xy(6)(7):  y(6)(7) - 8 x57 <= 0
 xy(6)(8):  y(6)(8) - 8 x58 <= 0
 xy(6)(9):  y(6)(9) - 8 x59 <= 0
 xy(6)(10): y(6)(10) - 8 x60 <= 0
 xy(7)(2):  y(7)(2) - 8 x62 <= 0
 xy(7)(3):  y(7)(3) - 8 x63 <= 0
 xy(7)(4):  y(7)(4) - 8 x64 <= 0
 xy(7)(5):  y(7)(5) - 8 x65 <= 0
 xy(7)(6):  y(7)(6) - 8 x66 <= 0
 xy(7)(8):  y(7)(8) - 8 x68 <= 0
 xy(7)(9):  y(7)(9) - 8 x69 <= 0
 xy(7)(10): y(7)(10) - 8 x70 <= 0
 xy(8)(2):  y(8)(2) - 8 x72 <= 0
 xy(8)(3):  y(8)(3) - 8 x73 <= 0
 xy(8)(4):  y(8)(4) - 8 x74 <= 0
 xy(8)(5):  y(8)(5) - 8 x75 <= 0
 xy(8)(6):  y(8)(6) - 8 x76 <= 0
 xy(8)(7):  y(8)(7) - 8 x77 <= 0
 xy(8)(9):  y(8)(9) - 8 x79 <= 0
 xy(8)(10): y(8)(10) - 8 x80 <= 0
 xy(9)(2):  y(9)(2) - 8 x82 <= 0
 xy(9)(3):  y(9)(3) - 8 x83 <= 0
 xy(9)(4):  y(9)(4) - 8 x84 <= 0
 xy(9)(5):  y(9)(5) - 8 x85 <= 0
 xy(9)(6):  y(9)(6) - 8 x86 <= 0
 xy(9)(7):  y(9)(7) - 8 x87 <= 0
 xy(9)(8):  y(9)(8) - 8 x88 <= 0
 xy(9)(10): y(9)(10) - 8 x90 <= 0
 xy(10)(2): y(10)(2) - 8 x92 <= 0
 xy(10)(3): y(10)(3) - 8 x93 <= 0
 xy(10)(4): y(10)(4) - 8 x94 <= 0
 xy(10)(5): y(10)(5) - 8 x95 <= 0
 xy(10)(6): y(10)(6) - 8 x96 <= 0
 xy(10)(7): y(10)(7) - 8 x97 <= 0
 xy(10)(8): y(10)(8) - 8 x98 <= 0
 xy(10)(9): y(10)(9) - 8 x99 <= 0
 y12:       y(1)(2) - 9 x2  = 0
 y13:       y(1)(3) - 9 x3  = 0
 y14:       y(1)(4) - 9 x4  = 0
 y15:       y(1)(5) - 9 x5  = 0
 y16:       y(1)(6) - 9 x6  = 0
 y17:       y(1)(7) - 9 x7  = 0
 y18:       y(1)(8) - 9 x8  = 0
 y19:       y(1)(9) - 9 x9  = 0
 y110:      y(1)(10) - 9 x10  = 0
 y(2):      y(1)(2) + y(3)(2) + y(4)(2) + y(5)(2) + y(6)(2) + y(7)(2) + y(8)(2)
            + y(9)(2) + y(10)(2) - y(2)(1) - y(2)(3) - y(2)(4) - y(2)(5)
            - y(2)(6) - y(2)(7) - y(2)(8) - y(2)(9) - y(2)(10)  = 1
 y(3):      y(1)(3) + y(2)(3) + y(4)(3) + y(5)(3) + y(6)(3) + y(7)(3) + y(8)(3)
            + y(9)(3) + y(10)(3) - y(3)(1) - y(3)(2) - y(3)(4) - y(3)(5)
            - y(3)(6) - y(3)(7) - y(3)(8) - y(3)(9) - y(3)(10)  = 1
 y(4):      y(1)(4) + y(2)(4) + y(3)(4) + y(5)(4) + y(6)(4) + y(7)(4) + y(8)(4)
            + y(9)(4) + y(10)(4) - y(4)(1) - y(4)(2) - y(4)(3) - y(4)(5)
            - y(4)(6) - y(4)(7) - y(4)(8) - y(4)(9) - y(4)(10)  = 1
 y(5):      y(1)(5) + y(2)(5) + y(3)(5) + y(4)(5) + y(6)(5) + y(7)(5) + y(8)(5)
            + y(9)(5) + y(10)(5) - y(5)(1) - y(5)(2) - y(5)(3) - y(5)(4)
            - y(5)(6) - y(5)(7) - y(5)(8) - y(5)(9) - y(5)(10)  = 1
 y(6):      y(1)(6) + y(2)(6) + y(3)(6) + y(4)(6) + y(5)(6) + y(7)(6) + y(8)(6)
            + y(9)(6) + y(10)(6) - y(6)(1) - y(6)(2) - y(6)(3) - y(6)(4)
            - y(6)(5) - y(6)(7) - y(6)(8) - y(6)(9) - y(6)(10)  = 1
 y(7):      y(1)(7) + y(2)(7) + y(3)(7) + y(4)(7) + y(5)(7) + y(6)(7) + y(8)(7)
            + y(9)(7) + y(10)(7) - y(7)(1) - y(7)(2) - y(7)(3) - y(7)(4)
            - y(7)(5) - y(7)(6) - y(7)(8) - y(7)(9) - y(7)(10)  = 1
 y(8):      y(1)(8) + y(2)(8) + y(3)(8) + y(4)(8) + y(5)(8) + y(6)(8) + y(7)(8)
            + y(9)(8) + y(10)(8) - y(8)(1) - y(8)(2) - y(8)(3) - y(8)(4)
            - y(8)(5) - y(8)(6) - y(8)(7) - y(8)(9) - y(8)(10)  = 1
 y(9):      y(1)(9) + y(2)(9) + y(3)(9) + y(4)(9) + y(5)(9) + y(6)(9) + y(7)(9)
            + y(8)(9) + y(10)(9) - y(9)(1) - y(9)(2) - y(9)(3) - y(9)(4)
            - y(9)(5) - y(9)(6) - y(9)(7) - y(9)(8) - y(9)(10)  = 1
 y(10):     y(1)(10) + y(2)(10) + y(3)(10) + y(4)(10) + y(5)(10) + y(6)(10)
            + y(7)(10) + y(8)(10) + y(9)(10) - y(10)(1) - y(10)(2) - y(10)(3)
            - y(10)(4) - y(10)(5) - y(10)(6) - y(10)(7) - y(10)(8) - y(10)(9)
             = 1
Bounds
      x1 = 0
 0 <= x2 <= 1
 0 <= x3 <= 1
 0 <= x4 <= 1
 0 <= x5 <= 1
 0 <= x6 <= 1
 0 <= x7 <= 1
 0 <= x8 <= 1
 0 <= x9 <= 1
 0 <= x10 <= 1
 0 <= x11 <= 1
      x12 = 0
 0 <= x13 <= 1
 0 <= x14 <= 1
 0 <= x15 <= 1
 0 <= x16 <= 1
 0 <= x17 <= 1
 0 <= x18 <= 1
 0 <= x19 <= 1
 0 <= x20 <= 1
 0 <= x21 <= 1
 0 <= x22 <= 1
      x23 = 0
 0 <= x24 <= 1
 0 <= x25 <= 1
 0 <= x26 <= 1
 0 <= x27 <= 1
 0 <= x28 <= 1
 0 <= x29 <= 1
 0 <= x30 <= 1
 0 <= x31 <= 1
 0 <= x32 <= 1
 0 <= x33 <= 1
      x34 = 0
 0 <= x35 <= 1
 0 <= x36 <= 1
 0 <= x37 <= 1
 0 <= x38 <= 1
 0 <= x39 <= 1
 0 <= x40 <= 1
 0 <= x41 <= 1
 0 <= x42 <= 1
 0 <= x43 <= 1
 0 <= x44 <= 1
      x45 = 0
 0 <= x46 <= 1
 0 <= x47 <= 1
 0 <= x48 <= 1
 0 <= x49 <= 1
 0 <= x50 <= 1
 0 <= x51 <= 1
 0 <= x52 <= 1
 0 <= x53 <= 1
 0 <= x54 <= 1
 0 <= x55 <= 1
      x56 = 0
 0 <= x57 <= 1
 0 <= x58 <= 1
 0 <= x59 <= 1
 0 <= x60 <= 1
 0 <= x61 <= 1
 0 <= x62 <= 1
 0 <= x63 <= 1
 0 <= x64 <= 1
 0 <= x65 <= 1
 0 <= x66 <= 1
      x67 = 0
 0 <= x68 <= 1
 0 <= x69 <= 1
 0 <= x70 <= 1
 0 <= x71 <= 1
 0 <= x72 <= 1
 0 <= x73 <= 1
 0 <= x74 <= 1
 0 <= x75 <= 1
 0 <= x76 <= 1
 0 <= x77 <= 1
      x78 = 0
 0 <= x79 <= 1
 0 <= x80 <= 1
 0 <= x81 <= 1
 0 <= x82 <= 1
 0 <= x83 <= 1
 0 <= x84 <= 1
 0 <= x85 <= 1
 0 <= x86 <= 1
 0 <= x87 <= 1
 0 <= x88 <= 1
      x89 = 0
 0 <= x90 <= 1
 0 <= x91 <= 1
 0 <= x92 <= 1
 0 <= x93 <= 1
 0 <= x94 <= 1
 0 <= x95 <= 1
 0 <= x96 <= 1
 0 <= x97 <= 1
 0 <= x98 <= 1
 0 <= x99 <= 1
      x100 = 0
 0 <= y(1)(2) <= 9
 0 <= y(1)(3) <= 9
 0 <= y(1)(4) <= 9
 0 <= y(1)(5) <= 9
 0 <= y(1)(6) <= 9
 0 <= y(1)(7) <= 9
 0 <= y(1)(8) <= 9
 0 <= y(1)(9) <= 9
 0 <= y(1)(10) <= 9
 0 <= y(2)(1) <= 8
 0 <= y(2)(3) <= 8
 0 <= y(2)(4) <= 8
 0 <= y(2)(5) <= 8
 0 <= y(2)(6) <= 8
 0 <= y(2)(7) <= 8
 0 <= y(2)(8) <= 8
 0 <= y(2)(9) <= 8
 0 <= y(2)(10) <= 8
 0 <= y(3)(1) <= 8
 0 <= y(3)(2) <= 8
 0 <= y(3)(4) <= 8
 0 <= y(3)(5) <= 8
 0 <= y(3)(6) <= 8
 0 <= y(3)(7) <= 8
 0 <= y(3)(8) <= 8
 0 <= y(3)(9) <= 8
 0 <= y(3)(10) <= 8
 0 <= y(4)(1) <= 8
 0 <= y(4)(2) <= 8
 0 <= y(4)(3) <= 8
 0 <= y(4)(5) <= 8
 0 <= y(4)(6) <= 8
 0 <= y(4)(7) <= 8
 0 <= y(4)(8) <= 8
 0 <= y(4)(9) <= 8
 0 <= y(4)(10) <= 8
 0 <= y(5)(1) <= 8
 0 <= y(5)(2) <= 8
 0 <= y(5)(3) <= 8
 0 <= y(5)(4) <= 8
 0 <= y(5)(6) <= 8
 0 <= y(5)(7) <= 8
 0 <= y(5)(8) <= 8
 0 <= y(5)(9) <= 8
 0 <= y(5)(10) <= 8
 0 <= y(6)(1) <= 8
 0 <= y(6)(2) <= 8
 0 <= y(6)(3) <= 8
 0 <= y(6)(4) <= 8
 0 <= y(6)(5) <= 8
 0 <= y(6)(7) <= 8
 0 <= y(6)(8) <= 8
 0 <= y(6)(9) <= 8
 0 <= y(6)(10) <= 8
 0 <= y(7)(1) <= 8
 0 <= y(7)(2) <= 8
 0 <= y(7)(3) <= 8
 0 <= y(7)(4) <= 8
 0 <= y(7)(5) <= 8
 0 <= y(7)(6) <= 8
 0 <= y(7)(8) <= 8
 0 <= y(7)(9) <= 8
 0 <= y(7)(10) <= 8
 0 <= y(8)(1) <= 8
 0 <= y(8)(2) <= 8
 0 <= y(8)(3) <= 8
 0 <= y(8)(4) <= 8
 0 <= y(8)(5) <= 8
 0 <= y(8)(6) <= 8
 0 <= y(8)(7) <= 8
 0 <= y(8)(9) <= 8
 0 <= y(8)(10) <= 8
 0 <= y(9)(1) <= 8
 0 <= y(9)(2) <= 8
 0 <= y(9)(3) <= 8
 0 <= y(9)(4) <= 8
 0 <= y(9)(5) <= 8
 0 <= y(9)(6) <= 8
 0 <= y(9)(7) <= 8
 0 <= y(9)(8) <= 8
 0 <= y(9)(10) <= 8
 0 <= y(10)(1) <= 8
 0 <= y(10)(2) <= 8
 0 <= y(10)(3) <= 8
 0 <= y(10)(4) <= 8
 0 <= y(10)(5) <= 8
 0 <= y(10)(6) <= 8
 0 <= y(10)(7) <= 8
 0 <= y(10)(8) <= 8
 0 <= y(10)(9) <= 8
Binaries
 x1  x2  x3  x4  x5  x6  x7  x8  x9  x10  x11  x12  x13  x14  x15  x16  x17 
 x18  x19  x20  x21  x22  x23  x24  x25  x26  x27  x28  x29  x30  x31  x32 
 x33  x34  x35  x36  x37  x38  x39  x40  x41  x42  x43  x44  x45  x46  x47 
 x48  x49  x50  x51  x52  x53  x54  x55  x56  x57  x58  x59  x60  x61  x62 
 x63  x64  x65  x66  x67  x68  x69  x70  x71  x72  x73  x74  x75  x76  x77 
 x78  x79  x80  x81  x82  x83  x84  x85  x86  x87  x88  x89  x90  x91  x92 
 x93  x94  x95  x96  x97  x98  x99  x100 
Generals
 y(1)(2)  y(1)(3)  y(1)(4)  y(1)(5)  y(1)(6)  y(1)(7)  y(1)(8)  y(1)(9) 
 y(1)(10)  y(2)(1)  y(2)(3)  y(2)(4)  y(2)(5)  y(2)(6)  y(2)(7)  y(2)(8) 
 y(2)(9)  y(2)(10)  y(3)(1)  y(3)(2)  y(3)(4)  y(3)(5)  y(3)(6)  y(3)(7) 
 y(3)(8)  y(3)(9)  y(3)(10)  y(4)(1)  y(4)(2)  y(4)(3)  y(4)(5)  y(4)(6) 
 y(4)(7)  y(4)(8)  y(4)(9)  y(4)(10)  y(5)(1)  y(5)(2)  y(5)(3)  y(5)(4) 
 y(5)(6)  y(5)(7)  y(5)(8)  y(5)(9)  y(5)(10)  y(6)(1)  y(6)(2)  y(6)(3) 
 y(6)(4)  y(6)(5)  y(6)(7)  y(6)(8)  y(6)(9)  y(6)(10)  y(7)(1)  y(7)(2) 
 y(7)(3)  y(7)(4)  y(7)(5)  y(7)(6)  y(7)(8)  y(7)(9)  y(7)(10)  y(8)(1) 
 y(8)(2)  y(8)(3)  y(8)(4)  y(8)(5)  y(8)(6)  y(8)(7)  y(8)(9)  y(8)(10) 
 y(9)(1)  y(9)(2)  y(9)(3)  y(9)(4)  y(9)(5)  y(9)(6)  y(9)(7)  y(9)(8) 
 y(9)(10)  y(10)(1)  y(10)(2)  y(10)(3)  y(10)(4)  y(10)(5)  y(10)(6) 
 y(10)(7)  y(10)(8)  y(10)(9) 
End
